Default LOCALE: LC_CTYPE=en_US.UTF-8;LC_NUMERIC=it_IT.UTF-8;LC_TIME=en_US.UTF-8;LC_COLLATE=en_US.UTF-8;LC_MONETARY=it_IT.UTF-8;LC_MESSAGES=en_US.UTF-8;LC_PAPER=it_IT.UTF-8;LC_NAME=it_IT.UTF-8;LC_ADDRESS=it_IT.UTF-8;LC_TELEPHONE=it_IT.UTF-8;LC_MEASUREMENT=it_IT.UTF-8;LC_IDENTIFICATION=it_IT.UTF-8

<<< setup, at 0s, took 1,54878e+09s


<<< generate, at 0s, took 0,00409102s

CPXPARAM_TimeLimit                               0.10000000000000001
Tried aggregator 2 times.
MIP Presolve eliminated 9 rows and 9 columns.
Aggregator did 10 substitutions.
Reduced MIP has 111 rows, 181 columns, and 614 nonzeros.
Reduced MIP has 90 binaries, 91 generals, 0 SOSs, and 0 indicators.
Presolve time = 0,00 sec. (0,61 ticks)
Found incumbent of value 64,319155 after 0,00 sec. (1,23 ticks)
Probing fixed 7 vars, tightened 0 bounds.
Probing time = 0,00 sec. (0,36 ticks)
Cover probing fixed 0 vars, tightened 63 bounds.
Tried aggregator 1 time.
MIP Presolve eliminated 10 rows and 16 columns.
MIP Presolve modified 112 coefficients.
Reduced MIP has 101 rows, 165 columns, and 565 nonzeros.
Reduced MIP has 83 binaries, 82 generals, 0 SOSs, and 0 indicators.
Presolve time = 0,00 sec. (0,67 ticks)
Probing time = 0,00 sec. (0,30 ticks)
Clique table members: 19.
MIP emphasis: balance optimality and feasibility.
MIP search method: dynamic search.
Parallel mode: deterministic, using up to 4 threads.
Root relaxation solution time = 0,00 sec. (0,82 ticks)

        Nodes                                         Cuts/
   Node  Left     Objective  IInf  Best Integer    Best Bound    ItCnt     Gap

*     0+    0                           64,3192        0,0000           100,00%
      0     0       22,3271    26       64,3192       22,3271      124   65,29%
      0     0       23,6283    30       64,3192      Cuts: 52      150   63,26%
      0     0       25,2117    46       64,3192      Cuts: 36      207   60,80%
      0     0       25,6773    47       64,3192      Cuts: 20      240   60,08%
      0     0       26,4488    36       64,3192      Cuts: 19      271   58,88%
      0     0       26,8464    40       64,3192      Cuts: 26      307   58,26%
      0     0       30,2223    38       64,3192      Cuts: 24      375   53,01%
      0     0       30,3611    50       64,3192      Cuts: 15      413   52,80%
      0     0       30,3679    48       64,3192      Cuts: 18      426   52,79%
      0     0       30,3814    45       64,3192      Cuts: 16      439   52,76%
      0     0       30,3993    49       64,3192      Cuts: 14      458   52,74%

Cover cuts applied:  6
Implied bound cuts applied:  12
Flow cuts applied:  20
Mixed integer rounding cuts applied:  2
Zero-half cuts applied:  12
Lift and project cuts applied:  2
Gomory fractional cuts applied:  2

Root node processing (before b&c):
  Real time             =    0,10 sec. (64,00 ticks)
Parallel b&c, 4 threads:
  Real time             =    0,00 sec. (0,00 ticks)
  Sync time (average)   =    0,00 sec.
  Wait time (average)   =    0,00 sec.
                          ------------
Total (root+branch&cut) =    0,10 sec. (64,00 ticks)

<<< solve, at 0,17s, took 0,10133s


OBJECTIVE: 64.31915
01/29/2019 18:42:30 193
solving time ~= 103.027099609
Done
 [[0 0 0 0 0 0 8 0 0 0]
         [0 0 5 0 0 0 0 0 0 0]
         [0 0 0 0 4 0 0 0 0 0]
         [0 0 0 0 0 0 0 2 0 0]
         [0 0 0 3 0 0 0 0 0 0]
         [0 0 0 0 0 0 0 0 10 0]
         [0 0 0 0 0 0 0 0 0 7]
         [0 0 0 0 0 1 0 0 0 0]
         [9 0 0 0 0 0 0 0 0 0]
         [0 6 0 0 0 0 0 0 0 0]]

<<< post process, at 0,17s, took 0,000602961s

// solution (time limit exceeded) with objective 64.3191548181831
// Quality Incumbent solution:
// MILP objective                                 6,4319154818e+01
// MILP solution norm |x| (Total, Max)            6,50000e+01  1,00000e+01
// MILP solution error (Ax=b) (Total, Max)        0,00000e+00  0,00000e+00
// MILP x bound error (Total, Max)                0,00000e+00  0,00000e+00
// MILP x integrality error (Total, Max)          0,00000e+00  0,00000e+00
// MILP slack bound error (Total, Max)            0,00000e+00  0,00000e+00
// 

y = [[0
             0 0 0 0 0 1 0 0 0]
             [0 0 1 0 0 0 0 0 0 0]
             [0 0 0 0 1 0 0 0 0 0]
             [0 0 0 0 0 0 0 1 0 0]
             [0 0 0 1 0 0 0 0 0 0]
             [0 0 0 0 0 0 0 0 1 0]
             [0 0 0 0 0 0 0 0 0 1]
             [0 0 0 0 0 1 0 0 0 0]
             [1 0 0 0 0 0 0 0 0 0]
             [0 1 0 0 0 0 0 0 0 0]];
x = [[0 0 0 0 0 0 8 0 0 0]
             [0 0 5 0 0 0 0 0 0 0]
             [0 0 0 0 4 0 0 0 0 0]
             [0 0 0 0 0 0 0 2 0 0]
             [0 0 0 3 0 0 0 0 0 0]
             [0 0 0 0 0 0 0 0 10 0]
             [0 0 0 0 0 0 0 0 0 7]
             [0 0 0 0 0 1 0 0 0 0]
             [9 0 0 0 0 0 0 0 0 0]
             [0 6 0 0 0 0 0 0 0 0]];

<<< done, at 0,17s, took 0,000452042s

